BAYES
324
2 2 2 2 2 2 2 2 2 2 2 2 2 2 2 2 2 2 2 2 2 2 2 2 2 2 2 2 2 2 2 2 2 2 2 2 2 2 2 2 2 2 2 2 2 2 2 2 2 2 2 2 2 2 2 2 2 2 2 2 2 2 2 2 2 2 2 2 2 2 2 2 2 2 2 2 2 2 2 2 2 2 2 2 2 2 2 2 2 2 2 2 2 2 2 2 2 2 2 2 2 2 2 2 2 2 2 2 2 2 2 2 2 2 2 2 2 2 2 2 2 2 2 2 2 2 2 2 2 2 2 2 2 2 2 2 2 2 2 2 2 2 2 2 2 2 2 2 2 2 2 2 2 2 2 2 2 2 2 2 2 2 2 2 2 2 2 2 2 2 2 2 2 2 2 2 2 2 2 2 2 2 2 2 2 2 2 2 2 2 2 2 2 2 2 2 2 2 2 2 2 2 2 2 2 2 2 2 2 2 2 2 2 2 2 2 2 2 2 2 2 2 2 2 2 2 2 2 2 2 2 2 2 2 2 2 2 2 2 2 2 2 2 2 2 2 2 2 2 2 2 2 2 2 2 2 2 2 2 2 2 2 2 2 2 2 2 2 2 2 2 2 2 2 2 2 2 2 2 2 2 2 2 2 2 2 2 2 2 2 2 2 2 2 2 2 2 2 2 2 2 2 2 2 2 2 2 2 2 2 2 2 2 2 2 2 2 2 2 2 2 2 2 2
324
1 0
2 0 1
2 1 2
2 2 3
2 3 4
2 4 5
2 5 6
2 6 7
2 7 8
2 8 9
2 9 10
2 10 11
2 11 12
2 12 13
2 13 14
2 14 15
2 15 16
2 16 17
2 0 18
3 1 18 19
3 2 19 20
3 3 20 21
3 4 21 22
3 5 22 23
3 6 23 24
3 7 24 25
3 8 25 26
3 9 26 27
3 10 27 28
3 11 28 29
3 12 29 30
3 13 30 31
3 14 31 32
3 15 32 33
3 16 33 34
3 17 34 35
2 18 36
3 19 36 37
3 20 37 38
3 21 38 39
3 22 39 40
3 23 40 41
3 24 41 42
3 25 42 43
3 26 43 44
3 27 44 45
3 28 45 46
3 29 46 47
3 30 47 48
3 31 48 49
3 32 49 50
3 33 50 51
3 34 51 52
3 35 52 53
2 36 54
3 37 54 55
3 38 55 56
3 39 56 57
3 40 57 58
3 41 58 59
3 42 59 60
3 43 60 61
3 44 61 62
3 45 62 63
3 46 63 64
3 47 64 65
3 48 65 66
3 49 66 67
3 50 67 68
3 51 68 69
3 52 69 70
3 53 70 71
2 54 72
3 55 72 73
3 56 73 74
3 57 74 75
3 58 75 76
3 59 76 77
3 60 77 78
3 61 78 79
3 62 79 80
3 63 80 81
3 64 81 82
3 65 82 83
3 66 83 84
3 67 84 85
3 68 85 86
3 69 86 87
3 70 87 88
3 71 88 89
2 72 90
3 73 90 91
3 74 91 92
3 75 92 93
3 76 93 94
3 77 94 95
3 78 95 96
3 79 96 97
3 80 97 98
3 81 98 99
3 82 99 100
3 83 100 101
3 84 101 102
3 85 102 103
3 86 103 104
3 87 104 105
3 88 105 106
3 89 106 107
2 90 108
3 91 108 109
3 92 109 110
3 93 110 111
3 94 111 112
3 95 112 113
3 96 113 114
3 97 114 115
3 98 115 116
3 99 116 117
3 100 117 118
3 101 118 119
3 102 119 120
3 103 120 121
3 104 121 122
3 105 122 123
3 106 123 124
3 107 124 125
2 108 126
3 109 126 127
3 110 127 128
3 111 128 129
3 112 129 130
3 113 130 131
3 114 131 132
3 115 132 133
3 116 133 134
3 117 134 135
3 118 135 136
3 119 136 137
3 120 137 138
3 121 138 139
3 122 139 140
3 123 140 141
3 124 141 142
3 125 142 143
2 126 144
3 127 144 145
3 128 145 146
3 129 146 147
3 130 147 148
3 131 148 149
3 132 149 150
3 133 150 151
3 134 151 152
3 135 152 153
3 136 153 154
3 137 154 155
3 138 155 156
3 139 156 157
3 140 157 158
3 141 158 159
3 142 159 160
3 143 160 161
2 144 162
3 145 162 163
3 146 163 164
3 147 164 165
3 148 165 166
3 149 166 167
3 150 167 168
3 151 168 169
3 152 169 170
3 153 170 171
3 154 171 172
3 155 172 173
3 156 173 174
3 157 174 175
3 158 175 176
3 159 176 177
3 160 177 178
3 161 178 179
2 162 180
3 163 180 181
3 164 181 182
3 165 182 183
3 166 183 184
3 167 184 185
3 168 185 186
3 169 186 187
3 170 187 188
3 171 188 189
3 172 189 190
3 173 190 191
3 174 191 192
3 175 192 193
3 176 193 194
3 177 194 195
3 178 195 196
3 179 196 197
2 180 198
3 181 198 199
3 182 199 200
3 183 200 201
3 184 201 202
3 185 202 203
3 186 203 204
3 187 204 205
3 188 205 206
3 189 206 207
3 190 207 208
3 191 208 209
3 192 209 210
3 193 210 211
3 194 211 212
3 195 212 213
3 196 213 214
3 197 214 215
2 198 216
3 199 216 217
3 200 217 218
3 201 218 219
3 202 219 220
3 203 220 221
3 204 221 222
3 205 222 223
3 206 223 224
3 207 224 225
3 208 225 226
3 209 226 227
3 210 227 228
3 211 228 229
3 212 229 230
3 213 230 231
3 214 231 232
3 215 232 233
2 216 234
3 217 234 235
3 218 235 236
3 219 236 237
3 220 237 238
3 221 238 239
3 222 239 240
3 223 240 241
3 224 241 242
3 225 242 243
3 226 243 244
3 227 244 245
3 228 245 246
3 229 246 247
3 230 247 248
3 231 248 249
3 232 249 250
3 233 250 251
2 234 252
3 235 252 253
3 236 253 254
3 237 254 255
3 238 255 256
3 239 256 257
3 240 257 258
3 241 258 259
3 242 259 260
3 243 260 261
3 244 261 262
3 245 262 263
3 246 263 264
3 247 264 265
3 248 265 266
3 249 266 267
3 250 267 268
3 251 268 269
2 252 270
3 253 270 271
3 254 271 272
3 255 272 273
3 256 273 274
3 257 274 275
3 258 275 276
3 259 276 277
3 260 277 278
3 261 278 279
3 262 279 280
3 263 280 281
3 264 281 282
3 265 282 283
3 266 283 284
3 267 284 285
3 268 285 286
3 269 286 287
2 270 288
3 271 288 289
3 272 289 290
3 273 290 291
3 274 291 292
3 275 292 293
3 276 293 294
3 277 294 295
3 278 295 296
3 279 296 297
3 280 297 298
3 281 298 299
3 282 299 300
3 283 300 301
3 284 301 302
3 285 302 303
3 286 303 304
3 287 304 305
2 288 306
3 289 306 307
3 290 307 308
3 291 308 309
3 292 309 310
3 293 310 311
3 294 311 312
3 295 312 313
3 296 313 314
3 297 314 315
3 298 315 316
3 299 316 317
3 300 317 318
3 301 318 319
3 302 319 320
3 303 320 321
3 304 321 322
3 305 322 323

2
0.210249 0.789751
4
1.0 0.0 0.0 1.0
4
0.221653 0.778347 0.241294 0.758706
4
0.424024 0.575976 0.525515 0.474485
4
0.0 1.0 1.0 0.0
4
0.0 1.0 1.0 0.0
4
0.965821 0.0341789 0.972886 0.027114
4
0.693069 0.306931 0.01238 0.98762
4
0.793165 0.206835 0.152583 0.847417
4
0.0 1.0 1.0 0.0
4
0.73582 0.26418 0.156792 0.843208
4
0.806971 0.193029 0.110098 0.889902
4
0.0172199 0.98278 0.234819 0.765181
4
0.0 1.0 1.0 0.0
4
0.0 1.0 1.0 0.0
4
1.0 0.0 0.0 1.0
4
0.476934 0.523066 0.268106 0.731894
4
0.162641 0.837359 0.813999 0.186001
4
0.135527 0.864473 0.734687 0.265313
8
0.0 1.0 1.0 0.0 1.0 0.0 1.0 0.0
8
0.0 1.0 1.0 0.0 1.0 0.0 1.0 0.0
8
0.995556 0.00444353 0.0836361 0.916364 0.132738 0.867262 0.0127763 0.987224
8
1.0 0.0 0.0 1.0 1.0 0.0 1.0 0.0
8
0.655423 0.344577 0.241414 0.758586 0.257586 0.742414 0.923529 0.0764711
8
0.0 1.0 1.0 0.0 1.0 0.0 1.0 0.0
8
1.0 0.0 1.0 0.0 0.0 1.0 1.0 0.0
8
1.0 0.0 1.0 0.0 0.0 1.0 0.0 1.0
8
0.0 1.0 1.0 0.0 0.0 1.0 1.0 0.0
8
1.0 0.0 0.0 1.0 1.0 0.0 0.0 1.0
8
0.0 1.0 1.0 0.0 0.0 1.0 1.0 0.0
8
0.0 1.0 1.0 0.0 0.0 1.0 1.0 0.0
8
0.0 1.0 1.0 0.0 1.0 0.0 0.0 1.0
8
1.0 0.0 0.0 1.0 1.0 0.0 1.0 0.0
8
0.272036 0.727964 0.180214 0.819786 0.0799804 0.92002 0.782683 0.217317
8
0.468723 0.531277 0.611786 0.388214 0.57343 0.42657 0.502003 0.497997
8
1.0 0.0 1.0 0.0 0.0 1.0 1.0 0.0
4
1.0 0.0 0.0 1.0
8
0.879196 0.120804 0.578757 0.421243 0.189554 0.810446 0.926695 0.0733054
8
0.944379 0.0556207 0.677853 0.322147 0.103262 0.896738 0.335931 0.664069
8
0.0 1.0 1.0 0.0 1.0 0.0 1.0 0.0
8
1.0 0.0 1.0 0.0 0.0 1.0 1.0 0.0
8
0.847461 0.152539 0.679972 0.320028 0.181588 0.818412 0.0632765 0.936724
8
1.0 0.0 1.0 0.0 0.0 1.0 1.0 0.0
8
0.0 1.0 1.0 0.0 1.0 0.0 1.0 0.0
8
0.747031 0.252969 0.654399 0.345601 0.368718 0.631282 0.850294 0.149706
8
0.801881 0.198119 0.277161 0.722839 0.171286 0.828714 0.934518 0.0654816
8
1.0 0.0 0.0 1.0 0.0 1.0 1.0 0.0
8
0.0 1.0 1.0 0.0 0.0 1.0 0.0 1.0
8
0.508104 0.491896 0.9776 0.0224002 0.309235 0.690765 0.238806 0.761194
8
0.506028 0.493972 0.759271 0.240729 0.626744 0.373256 0.281578 0.718422
8
0.0 1.0 0.0 1.0 0.0 1.0 1.0 0.0
8
0.114019 0.885981 0.488208 0.511792 0.156064 0.843936 0.285305 0.714695
8
1.0 0.0 1.0 0.0 0.0 1.0 1.0 0.0
8
0.0240078 0.975992 0.481502 0.518498 0.47695 0.52305 0.0578915 0.942108
4
0.247641 0.752359 0.565996 0.434004
8
0.556875 0.443125 0.804802 0.195198 0.801754 0.198246 0.0629031 0.937097
8
0.428498 0.571502 0.344481 0.655519 0.0333639 0.966636 0.746106 0.253894
8
1.0 0.0 1.0 0.0 0.0 1.0 1.0 0.0
8
0.408057 0.591943 0.556377 0.443623 0.343368 0.656632 0.972164 0.0278358
8
0.0 1.0 0.0 1.0 0.0 1.0 1.0 0.0
8
0.0953636 0.904636 0.598259 0.401741 0.960086 0.0399139 0.661359 0.338641
8
0.516962 0.483038 0.466161 0.533839 0.339193 0.660807 0.579865 0.420135
8
1.0 0.0 1.0 0.0 0.0 1.0 1.0 0.0
8
1.0 0.0 1.0 0.0 1.0 0.0 0.0 1.0
8
0.957487 0.0425127 0.0481013 0.951899 0.21024 0.78976 0.929651 0.0703485
8
0.223704 0.776296 0.0848277 0.915172 0.749557 0.250443 0.261176 0.738824
8
0.462002 0.537998 0.35654 0.64346 0.319765 0.680235 0.422088 0.577912
8
0.0 1.0 1.0 0.0 0.0 1.0 1.0 0.0
8
0.514295 0.485705 0.964087 0.0359129 0.443261 0.556739 0.577894 0.422106
8
1.0 0.0 0.0 1.0 0.0 1.0 0.0 1.0
8
1.0 0.0 1.0 0.0 1.0 0.0 0.0 1.0
8
0.72493 0.27507 0.262093 0.737907 0.601989 0.398011 0.986106 0.0138939
4
0.0639914 0.936009 0.342646 0.657354
8
0.0 1.0 0.0 1.0 0.0 1.0 1.0 0.0
8
0.356966 0.643034 0.944045 0.0559555 0.358901 0.641099 0.321053 0.678947
8
0.0 1.0 1.0 0.0 0.0 1.0 0.0 1.0
8
0.0 1.0 0.0 1.0 0.0 1.0 1.0 0.0
8
1.0 0.0 0.0 1.0 0.0 1.0 0.0 1.0
8
0.088702 0.911298 0.882394 0.117606 0.0689444 0.931056 0.392067 0.607933
8
1.0 0.0 0.0 1.0 0.0 1.0 1.0 0.0
8
0.737649 0.262351 0.632996 0.367004 0.230654 0.769346 0.124954 0.875046
8
0.0295903 0.97041 0.252956 0.747044 0.305131 0.694869 0.252641 0.747359
8
0.330741 0.669259 0.766678 0.233322 0.336828 0.663172 0.694723 0.305277
8
0.179837 0.820163 0.911136 0.0888635 0.522133 0.477867 0.284939 0.715061
8
0.248431 0.751569 0.373642 0.626358 0.611934 0.388066 0.317376 0.682624
8
0.980408 0.0195918 0.746865 0.253135 0.318344 0.681656 0.774012 0.225988
8
0.0 1.0 1.0 0.0 0.0 1.0 0.0 1.0
8
0.223746 0.776254 0.488189 0.511811 0.88957 0.11043 0.528877 0.471123
8
0.560655 0.439345 0.859618 0.140382 0.507508 0.492492 0.897483 0.102517
8
0.289448 0.710552 0.0773204 0.92268 0.465477 0.534523 0.81158 0.18842
4
0.0 1.0 1.0 0.0
8
1.0 0.0 0.0 1.0 0.0 1.0 1.0 0.0
8
0.124252 0.875748 0.819954 0.180046 0.561371 0.438629 0.145212 0.854788
8
1.0 0.0 1.0 0.0 0.0 1.0 1.0 0.0
8
0.0 1.0 0.0 1.0 1.0 0.0 1.0 0.0
8
1.0 0.0 1.0 0.0 0.0 1.0 1.0 0.0
8
1.0 0.0 0.0 1.0 1.0 0.0 1.0 0.0
8
0.0 1.0 1.0 0.0 0.0 1.0 0.0 1.0
8
0.0 1.0 0.0 1.0 1.0 0.0 1.0 0.0
8
0.854955 0.145045 0.850083 0.149917 0.108796 0.891204 0.564602 0.435398
8
0.103482 0.896518 0.163818 0.836182 0.424787 0.575213 0.838998 0.161002
8
1.0 0.0 1.0 0.0 1.0 0.0 0.0 1.0
8
0.515721 0.484279 0.233171 0.766829 0.958545 0.0414552 0.012657 0.987343
8
0.362608 0.637392 0.245494 0.754506 0.292607 0.707393 0.144059 0.855941
8
0.51316 0.48684 0.0497621 0.950238 0.534341 0.465659 0.295083 0.704917
8
0.0 1.0 1.0 0.0 0.0 1.0 0.0 1.0
8
0.348917 0.651083 0.878458 0.121542 0.248543 0.751457 0.187915 0.812085
8
0.0 1.0 0.0 1.0 1.0 0.0 0.0 1.0
4
0.0989152 0.901085 0.119854 0.880146
8
0.111572 0.888428 0.979268 0.0207324 0.205583 0.794417 0.357066 0.642934
8
1.0 0.0 0.0 1.0 1.0 0.0 1.0 0.0
8
0.0 1.0 1.0 0.0 1.0 0.0 0.0 1.0
8
0.0 1.0 1.0 0.0 0.0 1.0 0.0 1.0
8
0.790256 0.209744 0.0254007 0.974599 0.607878 0.392122 0.0601929 0.939807
8
0.49456 0.50544 0.944622 0.0553776 0.70751 0.29249 0.614414 0.385586
8
0.819082 0.180918 0.593682 0.406318 0.993179 0.00682076 0.176148 0.823852
8
0.342821 0.657179 0.513155 0.486845 0.650592 0.349408 0.742225 0.257775
8
1.0 0.0 1.0 0.0 1.0 0.0 0.0 1.0
8
0.645915 0.354085 0.90566 0.0943403 0.967743 0.0322571 0.248257 0.751743
8
0.490882 0.509118 0.0385129 0.961487 0.754313 0.245687 0.0987601 0.90124
8
1.0 0.0 1.0 0.0 0.0 1.0 1.0 0.0
8
1.0 0.0 0.0 1.0 1.0 0.0 0.0 1.0
8
0.0 1.0 1.0 0.0 1.0 0.0 0.0 1.0
8
0.963307 0.0366933 0.0482744 0.951726 0.151455 0.848545 0.355798 0.644202
8
1.0 0.0 0.0 1.0 1.0 0.0 0.0 1.0
8
0.0 1.0 0.0 1.0 0.0 1.0 1.0 0.0
4
0.0 1.0 1.0 0.0
8
0.995308 0.00469237 0.430517 0.569483 0.831349 0.168651 0.203042 0.796958
8
1.0 0.0 0.0 1.0 0.0 1.0 1.0 0.0
8
0.252471 0.747529 0.365299 0.634701 0.988997 0.0110028 0.161621 0.838379
8
1.0 0.0 0.0 1.0 1.0 0.0 1.0 0.0
8
1.0 0.0 0.0 1.0 1.0 0.0 1.0 0.0
8
1.0 0.0 0.0 1.0 1.0 0.0 1.0 0.0
8
0.670544 0.329456 0.0422778 0.957722 0.595226 0.404774 0.873587 0.126413
8
0.0 1.0 1.0 0.0 0.0 1.0 1.0 0.0
8
0.641738 0.358262 0.467868 0.532132 0.538475 0.461525 0.803359 0.196641
8
0.575746 0.424254 0.116436 0.883564 0.480877 0.519123 0.622157 0.377843
8
1.0 0.0 0.0 1.0 0.0 1.0 0.0 1.0
8
0.0 1.0 1.0 0.0 0.0 1.0 1.0 0.0
8
0.955109 0.0448905 0.863167 0.136833 0.981692 0.018308 0.550335 0.449665
8
0.285412 0.714588 0.866409 0.133591 0.614799 0.385201 0.674679 0.325321
8
0.164276 0.835724 0.316416 0.683584 0.436846 0.563154 0.702751 0.297249
8
0.0 1.0 1.0 0.0 1.0 0.0 1.0 0.0
8
0.510325 0.489675 0.881191 0.118809 0.484021 0.515979 0.754462 0.245538
4
0.672309 0.327691 0.271847 0.728153
8
0.0 1.0 1.0 0.0 1.0 0.0 0.0 1.0
8
1.0 0.0 0.0 1.0 0.0 1.0 0.0 1.0
8
0.0 1.0 1.0 0.0 1.0 0.0 0.0 1.0
8
0.64122 0.35878 0.546215 0.453785 0.629316 0.370684 0.87454 0.12546
8
0.865527 0.134473 0.588736 0.411264 0.725367 0.274633 0.375852 0.624148
8
0.0 1.0 0.0 1.0 1.0 0.0 0.0 1.0
8
0.0 1.0 0.0 1.0 1.0 0.0 0.0 1.0
8
0.194268 0.805732 0.250501 0.749499 0.932876 0.0671244 0.258657 0.741343
8
0.168271 0.831729 0.937846 0.0621543 0.96207 0.03793 0.372644 0.627356
8
0.47161 0.52839 0.0138643 0.986136 0.327526 0.672474 0.100926 0.899074
8
0.152238 0.847762 0.966453 0.0335469 0.47714 0.52286 0.877605 0.122395
8
1.0 0.0 1.0 0.0 0.0 1.0 0.0 1.0
8
0.87478 0.12522 0.167394 0.832606 0.713929 0.286071 0.741411 0.258589
8
0.0 1.0 1.0 0.0 1.0 0.0 1.0 0.0
8
1.0 0.0 0.0 1.0 0.0 1.0 1.0 0.0
8
0.63799 0.36201 0.765473 0.234527 0.241018 0.758982 0.738916 0.261084
8
0.393256 0.606744 0.705369 0.294631 0.131017 0.868983 0.270861 0.729139
4
1.0 0.0 0.0 1.0
8
0.0 1.0 1.0 0.0 0.0 1.0 0.0 1.0
8
0.0404725 0.959528 0.136484 0.863516 0.831606 0.168394 0.318291 0.681709
8
1.0 0.0 1.0 0.0 1.0 0.0 0.0 1.0
8
0.398681 0.601319 0.637658 0.362342 0.659558 0.340442 0.312173 0.687827
8
1.0 0.0 0.0 1.0 1.0 0.0 0.0 1.0
8
0.719931 0.280069 0.209925 0.790075 0.217307 0.782693 0.767605 0.232395
8
1.0 0.0 1.0 0.0 0.0 1.0 0.0 1.0
8
0.414103 0.585897 0.942177 0.0578227 0.819456 0.180544 0.245709 0.754291
8
0.0 1.0 1.0 0.0 1.0 0.0 0.0 1.0
8
0.697401 0.302599 0.556799 0.443201 0.621615 0.378385 0.356958 0.643042
8
0.897262 0.102738 0.781989 0.218011 0.422163 0.577837 0.911824 0.0881756
8
0.36861 0.63139 0.631756 0.368244 0.0708215 0.929178 0.585917 0.414083
8
1.0 0.0 1.0 0.0 1.0 0.0 0.0 1.0
8
1.0 0.0 0.0 1.0 0.0 1.0 0.0 1.0
8
0.265428 0.734572 0.081305 0.918695 0.29868 0.70132 0.0548801 0.94512
8
1.0 0.0 0.0 1.0 0.0 1.0 1.0 0.0
8
1.0 0.0 0.0 1.0 1.0 0.0 1.0 0.0
4
0.455968 0.544032 0.345093 0.654907
8
0.0418851 0.958115 0.744454 0.255546 0.181776 0.818224 0.202963 0.797037
8
0.0 1.0 1.0 0.0 1.0 0.0 0.0 1.0
8
0.0 1.0 0.0 1.0 1.0 0.0 1.0 0.0
8
0.591015 0.408985 0.312358 0.687642 0.215576 0.784424 0.343295 0.656705
8
0.0 1.0 0.0 1.0 1.0 0.0 1.0 0.0
8
1.0 0.0 0.0 1.0 1.0 0.0 1.0 0.0
8
0.358987 0.641013 0.724226 0.275774 0.10061 0.89939 0.56195 0.43805
8
1.0 0.0 0.0 1.0 0.0 1.0 1.0 0.0
8
0.0 1.0 0.0 1.0 1.0 0.0 1.0 0.0
8
0.225551 0.774449 0.334809 0.665191 0.0396082 0.960392 0.568847 0.431153
8
1.0 0.0 1.0 0.0 1.0 0.0 0.0 1.0
8
0.0 1.0 1.0 0.0 0.0 1.0 1.0 0.0
8
0.379865 0.620135 0.754387 0.245613 0.419454 0.580546 0.480476 0.519524
8
0.0 1.0 1.0 0.0 1.0 0.0 0.0 1.0
8
1.0 0.0 1.0 0.0 1.0 0.0 0.0 1.0
8
0.861009 0.138991 0.102524 0.897476 0.840051 0.159949 0.900618 0.0993823
8
0.28344 0.71656 0.0600537 0.939946 0.692752 0.307248 0.500605 0.499395
4
1.0 0.0 0.0 1.0
8
0.856286 0.143714 0.518927 0.481073 0.974304 0.0256962 0.551514 0.448486
8
0.728691 0.271309 0.970967 0.0290325 0.379269 0.620731 0.0450279 0.954972
8
0.26832 0.73168 0.189061 0.810939 0.0796391 0.920361 0.414205 0.585795
8
0.0 1.0 1.0 0.0 0.0 1.0 0.0 1.0
8
1.0 0.0 0.0 1.0 0.0 1.0 0.0 1.0
8
1.0 0.0 1.0 0.0 0.0 1.0 1.0 0.0
8
0.270674 0.729326 0.26998 0.73002 0.351939 0.648061 0.244977 0.755023
8
0.250732 0.749268 0.973668 0.0263317 0.792462 0.207538 0.63 0.37
8
0.0 1.0 1.0 0.0 1.0 0.0 1.0 0.0
8
1.0 0.0 1.0 0.0 0.0 1.0 1.0 0.0
8
0.0 1.0 0.0 1.0 0.0 1.0 1.0 0.0
8
0.216194 0.783806 0.839227 0.160773 0.975268 0.0247319 0.0492055 0.950794
8
0.0 1.0 1.0 0.0 0.0 1.0 0.0 1.0
8
0.0 1.0 1.0 0.0 1.0 0.0 0.0 1.0
8
0.0 1.0 0.0 1.0 1.0 0.0 1.0 0.0
8
0.25643 0.74357 0.141976 0.858024 0.64595 0.35405 0.332331 0.667669
8
0.602242 0.397758 0.621041 0.378959 0.941771 0.0582291 0.749699 0.250301
4
0.0 1.0 1.0 0.0
8
0.157883 0.842117 0.207171 0.792829 0.698827 0.301173 0.403131 0.596869
8
0.0537056 0.946294 0.469874 0.530126 0.260191 0.739809 0.382252 0.617748
8
1.0 0.0 0.0 1.0 1.0 0.0 1.0 0.0
8
1.0 0.0 0.0 1.0 0.0 1.0 0.0 1.0
8
0.0 1.0 0.0 1.0 1.0 0.0 1.0 0.0
8
0.424787 0.575213 0.063188 0.936812 0.738867 0.261133 0.607401 0.392599
8
1.0 0.0 0.0 1.0 1.0 0.0 0.0 1.0
8
0.0 1.0 1.0 0.0 1.0 0.0 1.0 0.0
8
0.838896 0.161104 0.192074 0.807926 0.494473 0.505527 0.561158 0.438842
8
0.0 1.0 0.0 1.0 1.0 0.0 0.0 1.0
8
1.0 0.0 0.0 1.0 0.0 1.0 0.0 1.0
8
0.476091 0.523909 0.760648 0.239352 0.494007 0.505993 0.083492 0.916508
8
0.821801 0.178199 0.848776 0.151224 0.410125 0.589875 0.848422 0.151578
8
1.0 0.0 0.0 1.0 0.0 1.0 1.0 0.0
8
0.0 1.0 1.0 0.0 1.0 0.0 1.0 0.0
8
0.0 1.0 1.0 0.0 1.0 0.0 1.0 0.0
8
0.0 1.0 1.0 0.0 0.0 1.0 0.0 1.0
4
0.694743 0.305257 0.0494384 0.950562
8
0.0 1.0 0.0 1.0 1.0 0.0 0.0 1.0
8
1.0 0.0 1.0 0.0 0.0 1.0 1.0 0.0
8
1.0 0.0 0.0 1.0 0.0 1.0 0.0 1.0
8
0.0398545 0.960146 0.357854 0.642146 0.783221 0.216779 0.795244 0.204756
8
0.0 1.0 1.0 0.0 0.0 1.0 0.0 1.0
8
0.663644 0.336356 0.678631 0.321369 0.485627 0.514373 0.358387 0.641613
8
0.635178 0.364822 0.136622 0.863378 0.759309 0.240691 0.60653 0.39347
8
0.200673 0.799327 0.426303 0.573697 0.407836 0.592164 0.0888 0.9112
8
0.0 1.0 1.0 0.0 1.0 0.0 0.0 1.0
8
0.0379256 0.962074 0.669907 0.330093 0.292582 0.707418 0.821147 0.178853
8
1.0 0.0 1.0 0.0 1.0 0.0 0.0 1.0
8
1.0 0.0 0.0 1.0 1.0 0.0 0.0 1.0
8
0.0 1.0 0.0 1.0 1.0 0.0 0.0 1.0
8
0.376178 0.623822 0.37855 0.62145 0.345342 0.654658 0.464978 0.535022
8
0.0528624 0.947138 0.185498 0.814502 0.86805 0.13195 0.682915 0.317085
8
0.0 1.0 1.0 0.0 1.0 0.0 1.0 0.0
8
0.983033 0.0169673 0.34678 0.65322 0.212803 0.787197 0.99825 0.00174959
4
0.0 1.0 1.0 0.0
8
0.0444039 0.955596 0.148254 0.851746 0.714362 0.285638 0.460601 0.539399
8
1.0 0.0 1.0 0.0 1.0 0.0 0.0 1.0
8
0.0 1.0 0.0 1.0 1.0 0.0 0.0 1.0
8
0.0 1.0 1.0 0.0 0.0 1.0 0.0 1.0
8
1.0 0.0 0.0 1.0 1.0 0.0 1.0 0.0
8
0.0 1.0 0.0 1.0 0.0 1.0 1.0 0.0
8
0.854189 0.145811 0.626753 0.373247 0.876427 0.123573 0.568552 0.431448
8
0.0 1.0 0.0 1.0 1.0 0.0 0.0 1.0
8
0.0 1.0 0.0 1.0 1.0 0.0 1.0 0.0
8
0.0 1.0 1.0 0.0 1.0 0.0 0.0 1.0
8
0.417893 0.582107 0.844094 0.155906 0.85455 0.14545 0.297186 0.702814
8
0.0333764 0.966624 0.523259 0.476741 0.212208 0.787792 0.210453 0.789547
8
1.0 0.0 0.0 1.0 0.0 1.0 0.0 1.0
8
0.819715 0.180285 0.187206 0.812794 0.0899804 0.91002 0.543175 0.456825
8
0.0 1.0 1.0 0.0 1.0 0.0 1.0 0.0
8
1.0 0.0 1.0 0.0 0.0 1.0 0.0 1.0
8
0.0 1.0 1.0 0.0 1.0 0.0 0.0 1.0
4
0.853924 0.146076 0.914381 0.0856194
8
0.0 1.0 0.0 1.0 0.0 1.0 1.0 0.0
8
1.0 0.0 1.0 0.0 0.0 1.0 0.0 1.0
8
0.0 1.0 0.0 1.0 1.0 0.0 0.0 1.0
8
0.659556 0.340444 0.111273 0.888727 0.140501 0.859499 0.324289 0.675711
8
0.508199 0.491801 0.254745 0.745255 0.70302 0.29698 0.534654 0.465346
8
0.635194 0.364806 0.415658 0.584342 0.248627 0.751373 0.489118 0.510882
8
0.0 1.0 1.0 0.0 1.0 0.0 1.0 0.0
8
0.644349 0.355651 0.698583 0.301417 0.385087 0.614913 0.46702 0.53298
8
0.395616 0.604384 0.379672 0.620328 0.894713 0.105287 0.409966 0.590034
8
0.543286 0.456714 0.069522 0.930478 0.776103 0.223897 0.683787 0.316213
8
1.0 0.0 0.0 1.0 0.0 1.0 0.0 1.0
8
0.251649 0.748351 0.729257 0.270743 0.142298 0.857702 0.500276 0.499724
8
1.0 0.0 1.0 0.0 1.0 0.0 0.0 1.0
8
0.33539 0.66461 0.571559 0.428441 0.3081 0.6919 0.720477 0.279523
8
0.0 1.0 0.0 1.0 1.0 0.0 0.0 1.0
8
0.0 1.0 1.0 0.0 0.0 1.0 0.0 1.0
8
0.250228 0.749772 0.146933 0.853067 0.637949 0.362051 0.34429 0.65571
4
0.889597 0.110403 0.0735471 0.926453
8
1.0 0.0 1.0 0.0 1.0 0.0 0.0 1.0
8
1.0 0.0 0.0 1.0 0.0 1.0 1.0 0.0
8
0.0 1.0 0.0 1.0 0.0 1.0 1.0 0.0
8
0.0 1.0 1.0 0.0 1.0 0.0 1.0 0.0
8
1.0 0.0 1.0 0.0 0.0 1.0 1.0 0.0
8
0.98059 0.0194096 0.0328339 0.967166 0.876088 0.123912 0.0541375 0.945863
8
0.0 1.0 0.0 1.0 1.0 0.0 0.0 1.0
8
0.490616 0.509384 0.812543 0.187457 0.939307 0.0606928 0.715803 0.284197
8
0.964862 0.0351376 0.774151 0.225849 0.171466 0.828534 0.408669 0.591331
8
0.935033 0.064967 0.935557 0.0644431 0.617753 0.382247 0.294182 0.705818
8
1.0 0.0 0.0 1.0 1.0 0.0 1.0 0.0
8
0.93852 0.0614803 0.822175 0.177825 0.505301 0.494699 0.992657 0.00734279
8
0.771262 0.228738 0.338716 0.661284 0.407794 0.592206 0.344792 0.655208
8
0.360125 0.639875 0.835408 0.164592 0.562866 0.437134 0.299432 0.700568
8
0.496824 0.503176 0.264295 0.735705 0.325363 0.674637 0.66829 0.33171
8
0.885735 0.114265 0.603323 0.396677 0.608521 0.391479 0.503488 0.496512
8
0.93015 0.0698501 0.133569 0.866431 0.540228 0.459772 0.888079 0.111921
4
0.169442 0.830558 0.826599 0.173401
8
0.674743 0.325257 0.819256 0.180744 0.615966 0.384034 0.446004 0.553996
8
0.0 1.0 1.0 0.0 0.0 1.0 1.0 0.0
8
0.471162 0.528838 0.683318 0.316682 0.177417 0.822583 0.967986 0.0320139
8
0.502779 0.497221 0.636276 0.363724 0.620576 0.379424 0.388514 0.611486
8
0.0 1.0 1.0 0.0 0.0 1.0 1.0 0.0
8
0.0 1.0 1.0 0.0 1.0 0.0 1.0 0.0
8
0.693567 0.306433 0.521516 0.478484 0.693181 0.306819 0.309533 0.690467
8
0.851154 0.148846 0.333293 0.666707 0.758317 0.241683 0.759449 0.240551
8
0.384522 0.615478 0.230611 0.769389 0.400495 0.599505 0.561939 0.438061
8
0.0 1.0 1.0 0.0 0.0 1.0 1.0 0.0
8
1.0 0.0 1.0 0.0 0.0 1.0 1.0 0.0
8
0.0 1.0 0.0 1.0 1.0 0.0 0.0 1.0
8
0.278278 0.721722 0.0128533 0.987147 0.257198 0.742802 0.971459 0.0285406
8
1.0 0.0 0.0 1.0 1.0 0.0 1.0 0.0
8
0.372856 0.627144 0.367559 0.632441 0.812673 0.187327 0.773351 0.226649
8
0.0112702 0.98873 0.121459 0.878541 0.994216 0.00578437 0.846143 0.153857
8
0.0 1.0 0.0 1.0 0.0 1.0 1.0 0.0